unsat
(obs-1-13 obs-4-3 obs-4-13 obs-5-3 obs-5-6 obs-5-7 obs-5-8 obs-5-9 obs-5-10 obs-5-11 obs-5-12 obs-5-13 obs-6-3 obs-7-3 obs-8-4 obs-8-5 obs-8-6 obs-8-7 obs-8-8 obs-8-9 obs-9-9 obs-9-10 obs-9-11 obs-9-12 obs-9-13 obs-11-3 obs-11-4 obs-11-5 obs-11-6 a7_9$2@ a7_10$0@ a7_10$2@ a9_4$0@ a16_8$2@)
(error "line 874404 column 10: model is not available")
